80,87
77,67
15,9
38,44
21,15
33,29
62,52
27,28
82,77
44,40
11,4
77,86
98,96
17,18
25,23
39,32
97,88
11,20
67,69
27,33
49,42
90,88
22,28
25,21
17,13
80,84
98,102
89,90
43,38
23,32
24,26
63,71
57,63
36,35
90,80
85,84
89,90
83,73
74,82
21,22
64,60
23,14
85,92
48,57
84,81
50,41
46,55
41,46
13,10
13,22

248
554
710
444
53
113
113
34
17
41
